
(set-option :produce-models true)
(set-option :inline-size-limit 10000)

(declare-const var0 String)

(push 1)
(assert (str.in.re var0 (re.* (re.range "\x01" "\xff"))))
(assert (str.in.re var0 (re.++ (re.++ (re.union (re.++ (re.++ (re.*? re.allchar) (str.to.re "")) ((_ re.capture 1) (re.++ (re.+ (re.range "0" "9")) (re.++ (re.+ (re.union (str.to.re " ") (re.union (str.to.re "\u{0b}") (re.union (str.to.re "\u{0a}") (re.union (str.to.re "\u{0d}") (re.union (str.to.re "\u{09}") (str.to.re "\u{0c}"))))))) (re.++ (str.to.re "d") (re.++ (re.union (re.++ (str.to.re "") (re.++ (str.to.re "a") (str.to.re "y"))) (str.to.re "")) (re.union (re.++ (str.to.re "") (str.to.re "s")) (str.to.re "")))))))) (re.++ (re.*? re.allchar) (str.to.re ""))) (re.++ (re.union (re.++ (str.to.re "") (re.union (str.to.re " ") (re.union (str.to.re "\u{0b}") (re.union (str.to.re "\u{0a}") (re.union (str.to.re "\u{0d}") (re.union (str.to.re "\u{09}") (str.to.re "\u{0c}"))))))) (str.to.re "")) (re.++ (re.union (re.++ (str.to.re "") ((_ re.capture 2) (re.++ (re.+ (re.range "0" "9")) (re.++ (re.+ (re.union (str.to.re " ") (re.union (str.to.re "\u{0b}") (re.union (str.to.re "\u{0a}") (re.union (str.to.re "\u{0d}") (re.union (str.to.re "\u{09}") (str.to.re "\u{0c}"))))))) (re.++ (str.to.re "h") (re.++ (re.union (re.++ (str.to.re "") (re.++ (str.to.re "o") (str.to.re "u"))) (str.to.re "")) (re.++ (re.union (re.++ (str.to.re "") (str.to.re "r")) (str.to.re "")) (re.union (re.++ (str.to.re "") (str.to.re "s")) (str.to.re ""))))))))) (str.to.re "")) (re.++ (re.union (re.++ (str.to.re "") (re.union (str.to.re " ") (re.union (str.to.re "\u{0b}") (re.union (str.to.re "\u{0a}") (re.union (str.to.re "\u{0d}") (re.union (str.to.re "\u{09}") (str.to.re "\u{0c}"))))))) (str.to.re "")) (re.++ (re.union (re.++ (str.to.re "") ((_ re.capture 3) (re.++ (re.+ (re.range "0" "9")) (re.++ (re.+ (re.union (str.to.re " ") (re.union (str.to.re "\u{0b}") (re.union (str.to.re "\u{0a}") (re.union (str.to.re "\u{0d}") (re.union (str.to.re "\u{09}") (str.to.re "\u{0c}"))))))) (re.++ (str.to.re "m") (re.++ (re.union (re.++ (str.to.re "") (re.++ (str.to.re "i") (str.to.re "n"))) (str.to.re "")) (re.++ (re.union (re.++ (str.to.re "") (re.++ (str.to.re "u") (re.++ (str.to.re "t") (str.to.re "e")))) (str.to.re "")) (re.union (re.++ (str.to.re "") (str.to.re "s")) (str.to.re ""))))))))) (str.to.re "")) (re.++ (re.union (re.++ (str.to.re "") (re.union (str.to.re " ") (re.union (str.to.re "\u{0b}") (re.union (str.to.re "\u{0a}") (re.union (str.to.re "\u{0d}") (re.union (str.to.re "\u{09}") (str.to.re "\u{0c}"))))))) (str.to.re "")) (re.union (re.++ (str.to.re "") ((_ re.capture 4) (re.++ (re.+ (re.range "0" "9")) (re.++ (re.union (re.++ (str.to.re "") (re.++ (re.+ (re.union (str.to.re " ") (re.union (str.to.re "\u{0b}") (re.union (str.to.re "\u{0a}") (re.union (str.to.re "\u{0d}") (re.union (str.to.re "\u{09}") (str.to.re "\u{0c}"))))))) (re.++ (str.to.re "s") (re.++ (re.union (re.++ (str.to.re "") (re.++ (str.to.re "e") (str.to.re "c"))) (str.to.re "")) (re.union (re.++ (str.to.re "") (re.++ (str.to.re "o") (re.++ (str.to.re "n") (str.to.re "d")))) (str.to.re "")))))) (str.to.re "")) (re.union (re.++ (str.to.re "") (str.to.re "s")) (str.to.re "")))))) (str.to.re "")))))))) re.end-anchor)))	; match!==null
(assert (not (str.in.re ((_ str.extract 1) var0 (re.++ (re.++ (re.union (re.++ (re.++ (re.*? re.allchar) (str.to.re "")) ((_ re.capture 1) (re.++ (re.+ (re.range "0" "9")) (re.++ (re.+ (re.union (str.to.re " ") (re.union (str.to.re "\u{0b}") (re.union (str.to.re "\u{0a}") (re.union (str.to.re "\u{0d}") (re.union (str.to.re "\u{09}") (str.to.re "\u{0c}"))))))) (re.++ (str.to.re "d") (re.++ (re.union (re.++ (str.to.re "") (re.++ (str.to.re "a") (str.to.re "y"))) (str.to.re "")) (re.union (re.++ (str.to.re "") (str.to.re "s")) (str.to.re "")))))))) (re.++ (re.*? re.allchar) (str.to.re ""))) (re.++ (re.union (re.++ (str.to.re "") (re.union (str.to.re " ") (re.union (str.to.re "\u{0b}") (re.union (str.to.re "\u{0a}") (re.union (str.to.re "\u{0d}") (re.union (str.to.re "\u{09}") (str.to.re "\u{0c}"))))))) (str.to.re "")) (re.++ (re.union (re.++ (str.to.re "") ((_ re.capture 2) (re.++ (re.+ (re.range "0" "9")) (re.++ (re.+ (re.union (str.to.re " ") (re.union (str.to.re "\u{0b}") (re.union (str.to.re "\u{0a}") (re.union (str.to.re "\u{0d}") (re.union (str.to.re "\u{09}") (str.to.re "\u{0c}"))))))) (re.++ (str.to.re "h") (re.++ (re.union (re.++ (str.to.re "") (re.++ (str.to.re "o") (str.to.re "u"))) (str.to.re "")) (re.++ (re.union (re.++ (str.to.re "") (str.to.re "r")) (str.to.re "")) (re.union (re.++ (str.to.re "") (str.to.re "s")) (str.to.re ""))))))))) (str.to.re "")) (re.++ (re.union (re.++ (str.to.re "") (re.union (str.to.re " ") (re.union (str.to.re "\u{0b}") (re.union (str.to.re "\u{0a}") (re.union (str.to.re "\u{0d}") (re.union (str.to.re "\u{09}") (str.to.re "\u{0c}"))))))) (str.to.re "")) (re.++ (re.union (re.++ (str.to.re "") ((_ re.capture 3) (re.++ (re.+ (re.range "0" "9")) (re.++ (re.+ (re.union (str.to.re " ") (re.union (str.to.re "\u{0b}") (re.union (str.to.re "\u{0a}") (re.union (str.to.re "\u{0d}") (re.union (str.to.re "\u{09}") (str.to.re "\u{0c}"))))))) (re.++ (str.to.re "m") (re.++ (re.union (re.++ (str.to.re "") (re.++ (str.to.re "i") (str.to.re "n"))) (str.to.re "")) (re.++ (re.union (re.++ (str.to.re "") (re.++ (str.to.re "u") (re.++ (str.to.re "t") (str.to.re "e")))) (str.to.re "")) (re.union (re.++ (str.to.re "") (str.to.re "s")) (str.to.re ""))))))))) (str.to.re "")) (re.++ (re.union (re.++ (str.to.re "") (re.union (str.to.re " ") (re.union (str.to.re "\u{0b}") (re.union (str.to.re "\u{0a}") (re.union (str.to.re "\u{0d}") (re.union (str.to.re "\u{09}") (str.to.re "\u{0c}"))))))) (str.to.re "")) (re.union (re.++ (str.to.re "") ((_ re.capture 4) (re.++ (re.+ (re.range "0" "9")) (re.++ (re.union (re.++ (str.to.re "") (re.++ (re.+ (re.union (str.to.re " ") (re.union (str.to.re "\u{0b}") (re.union (str.to.re "\u{0a}") (re.union (str.to.re "\u{0d}") (re.union (str.to.re "\u{09}") (str.to.re "\u{0c}"))))))) (re.++ (str.to.re "s") (re.++ (re.union (re.++ (str.to.re "") (re.++ (str.to.re "e") (str.to.re "c"))) (str.to.re "")) (re.union (re.++ (str.to.re "") (re.++ (str.to.re "o") (re.++ (str.to.re "n") (str.to.re "d")))) (str.to.re "")))))) (str.to.re "")) (re.union (re.++ (str.to.re "") (str.to.re "s")) (str.to.re "")))))) (str.to.re "")))))))) re.end-anchor)) (str.to.re "\x00"))))
;match[1]!==null
(assert (str.in.re ((_ str.extract 1) var0 (re.++ (re.++ (re.union (re.++ (re.++ (re.*? re.allchar) (str.to.re "")) ((_ re.capture 1) (re.++ (re.+ (re.range "0" "9")) (re.++ (re.+ (re.union (str.to.re " ") (re.union (str.to.re "\u{0b}") (re.union (str.to.re "\u{0a}") (re.union (str.to.re "\u{0d}") (re.union (str.to.re "\u{09}") (str.to.re "\u{0c}"))))))) (re.++ (str.to.re "d") (re.++ (re.union (re.++ (str.to.re "") (re.++ (str.to.re "a") (str.to.re "y"))) (str.to.re "")) (re.union (re.++ (str.to.re "") (str.to.re "s")) (str.to.re "")))))))) (re.++ (re.*? re.allchar) (str.to.re ""))) (re.++ (re.union (re.++ (str.to.re "") (re.union (str.to.re " ") (re.union (str.to.re "\u{0b}") (re.union (str.to.re "\u{0a}") (re.union (str.to.re "\u{0d}") (re.union (str.to.re "\u{09}") (str.to.re "\u{0c}"))))))) (str.to.re "")) (re.++ (re.union (re.++ (str.to.re "") ((_ re.capture 2) (re.++ (re.+ (re.range "0" "9")) (re.++ (re.+ (re.union (str.to.re " ") (re.union (str.to.re "\u{0b}") (re.union (str.to.re "\u{0a}") (re.union (str.to.re "\u{0d}") (re.union (str.to.re "\u{09}") (str.to.re "\u{0c}"))))))) (re.++ (str.to.re "h") (re.++ (re.union (re.++ (str.to.re "") (re.++ (str.to.re "o") (str.to.re "u"))) (str.to.re "")) (re.++ (re.union (re.++ (str.to.re "") (str.to.re "r")) (str.to.re "")) (re.union (re.++ (str.to.re "") (str.to.re "s")) (str.to.re ""))))))))) (str.to.re "")) (re.++ (re.union (re.++ (str.to.re "") (re.union (str.to.re " ") (re.union (str.to.re "\u{0b}") (re.union (str.to.re "\u{0a}") (re.union (str.to.re "\u{0d}") (re.union (str.to.re "\u{09}") (str.to.re "\u{0c}"))))))) (str.to.re "")) (re.++ (re.union (re.++ (str.to.re "") ((_ re.capture 3) (re.++ (re.+ (re.range "0" "9")) (re.++ (re.+ (re.union (str.to.re " ") (re.union (str.to.re "\u{0b}") (re.union (str.to.re "\u{0a}") (re.union (str.to.re "\u{0d}") (re.union (str.to.re "\u{09}") (str.to.re "\u{0c}"))))))) (re.++ (str.to.re "m") (re.++ (re.union (re.++ (str.to.re "") (re.++ (str.to.re "i") (str.to.re "n"))) (str.to.re "")) (re.++ (re.union (re.++ (str.to.re "") (re.++ (str.to.re "u") (re.++ (str.to.re "t") (str.to.re "e")))) (str.to.re "")) (re.union (re.++ (str.to.re "") (str.to.re "s")) (str.to.re ""))))))))) (str.to.re "")) (re.++ (re.union (re.++ (str.to.re "") (re.union (str.to.re " ") (re.union (str.to.re "\u{0b}") (re.union (str.to.re "\u{0a}") (re.union (str.to.re "\u{0d}") (re.union (str.to.re "\u{09}") (str.to.re "\u{0c}"))))))) (str.to.re "")) (re.union (re.++ (str.to.re "") ((_ re.capture 4) (re.++ (re.+ (re.range "0" "9")) (re.++ (re.union (re.++ (str.to.re "") (re.++ (re.+ (re.union (str.to.re " ") (re.union (str.to.re "\u{0b}") (re.union (str.to.re "\u{0a}") (re.union (str.to.re "\u{0d}") (re.union (str.to.re "\u{09}") (str.to.re "\u{0c}"))))))) (re.++ (str.to.re "s") (re.++ (re.union (re.++ (str.to.re "") (re.++ (str.to.re "e") (str.to.re "c"))) (str.to.re "")) (re.union (re.++ (str.to.re "") (re.++ (str.to.re "o") (re.++ (str.to.re "n") (str.to.re "d")))) (str.to.re "")))))) (str.to.re "")) (re.union (re.++ (str.to.re "") (str.to.re "s")) (str.to.re "")))))) (str.to.re "")))))))) re.end-anchor)) (re.++ re.all(re.+ (re.range "a" "z")) re.all) ))
;/[a-z]+/.test(match[1]) == true
(check-sat)
(get-model)
(pop 1)
(push 1)
(assert (str.in.re var0 (re.* (re.range "\x01" "\xff"))))
(assert (str.in.re var0 (re.++ (re.++ (re.union (re.++ (re.++ (re.*? re.allchar) (str.to.re "")) ((_ re.capture 1) (re.++ (re.+ (re.range "0" "9")) (re.++ (re.+ (re.union (str.to.re " ") (re.union (str.to.re "\u{0b}") (re.union (str.to.re "\u{0a}") (re.union (str.to.re "\u{0d}") (re.union (str.to.re "\u{09}") (str.to.re "\u{0c}"))))))) (re.++ (str.to.re "d") (re.++ (re.union (re.++ (str.to.re "") (re.++ (str.to.re "a") (str.to.re "y"))) (str.to.re "")) (re.union (re.++ (str.to.re "") (str.to.re "s")) (str.to.re "")))))))) (re.++ (re.*? re.allchar) (str.to.re ""))) (re.++ (re.union (re.++ (str.to.re "") (re.union (str.to.re " ") (re.union (str.to.re "\u{0b}") (re.union (str.to.re "\u{0a}") (re.union (str.to.re "\u{0d}") (re.union (str.to.re "\u{09}") (str.to.re "\u{0c}"))))))) (str.to.re "")) (re.++ (re.union (re.++ (str.to.re "") ((_ re.capture 2) (re.++ (re.+ (re.range "0" "9")) (re.++ (re.+ (re.union (str.to.re " ") (re.union (str.to.re "\u{0b}") (re.union (str.to.re "\u{0a}") (re.union (str.to.re "\u{0d}") (re.union (str.to.re "\u{09}") (str.to.re "\u{0c}"))))))) (re.++ (str.to.re "h") (re.++ (re.union (re.++ (str.to.re "") (re.++ (str.to.re "o") (str.to.re "u"))) (str.to.re "")) (re.++ (re.union (re.++ (str.to.re "") (str.to.re "r")) (str.to.re "")) (re.union (re.++ (str.to.re "") (str.to.re "s")) (str.to.re ""))))))))) (str.to.re "")) (re.++ (re.union (re.++ (str.to.re "") (re.union (str.to.re " ") (re.union (str.to.re "\u{0b}") (re.union (str.to.re "\u{0a}") (re.union (str.to.re "\u{0d}") (re.union (str.to.re "\u{09}") (str.to.re "\u{0c}"))))))) (str.to.re "")) (re.++ (re.union (re.++ (str.to.re "") ((_ re.capture 3) (re.++ (re.+ (re.range "0" "9")) (re.++ (re.+ (re.union (str.to.re " ") (re.union (str.to.re "\u{0b}") (re.union (str.to.re "\u{0a}") (re.union (str.to.re "\u{0d}") (re.union (str.to.re "\u{09}") (str.to.re "\u{0c}"))))))) (re.++ (str.to.re "m") (re.++ (re.union (re.++ (str.to.re "") (re.++ (str.to.re "i") (str.to.re "n"))) (str.to.re "")) (re.++ (re.union (re.++ (str.to.re "") (re.++ (str.to.re "u") (re.++ (str.to.re "t") (str.to.re "e")))) (str.to.re "")) (re.union (re.++ (str.to.re "") (str.to.re "s")) (str.to.re ""))))))))) (str.to.re "")) (re.++ (re.union (re.++ (str.to.re "") (re.union (str.to.re " ") (re.union (str.to.re "\u{0b}") (re.union (str.to.re "\u{0a}") (re.union (str.to.re "\u{0d}") (re.union (str.to.re "\u{09}") (str.to.re "\u{0c}"))))))) (str.to.re "")) (re.union (re.++ (str.to.re "") ((_ re.capture 4) (re.++ (re.+ (re.range "0" "9")) (re.++ (re.union (re.++ (str.to.re "") (re.++ (re.+ (re.union (str.to.re " ") (re.union (str.to.re "\u{0b}") (re.union (str.to.re "\u{0a}") (re.union (str.to.re "\u{0d}") (re.union (str.to.re "\u{09}") (str.to.re "\u{0c}"))))))) (re.++ (str.to.re "s") (re.++ (re.union (re.++ (str.to.re "") (re.++ (str.to.re "e") (str.to.re "c"))) (str.to.re "")) (re.union (re.++ (str.to.re "") (re.++ (str.to.re "o") (re.++ (str.to.re "n") (str.to.re "d")))) (str.to.re "")))))) (str.to.re "")) (re.union (re.++ (str.to.re "") (str.to.re "s")) (str.to.re "")))))) (str.to.re "")))))))) re.end-anchor)))	; match!==null
(assert (not (str.in.re ((_ str.extract 1) var0 (re.++ (re.++ (re.union (re.++ (re.++ (re.*? re.allchar) (str.to.re "")) ((_ re.capture 1) (re.++ (re.+ (re.range "0" "9")) (re.++ (re.+ (re.union (str.to.re " ") (re.union (str.to.re "\u{0b}") (re.union (str.to.re "\u{0a}") (re.union (str.to.re "\u{0d}") (re.union (str.to.re "\u{09}") (str.to.re "\u{0c}"))))))) (re.++ (str.to.re "d") (re.++ (re.union (re.++ (str.to.re "") (re.++ (str.to.re "a") (str.to.re "y"))) (str.to.re "")) (re.union (re.++ (str.to.re "") (str.to.re "s")) (str.to.re "")))))))) (re.++ (re.*? re.allchar) (str.to.re ""))) (re.++ (re.union (re.++ (str.to.re "") (re.union (str.to.re " ") (re.union (str.to.re "\u{0b}") (re.union (str.to.re "\u{0a}") (re.union (str.to.re "\u{0d}") (re.union (str.to.re "\u{09}") (str.to.re "\u{0c}"))))))) (str.to.re "")) (re.++ (re.union (re.++ (str.to.re "") ((_ re.capture 2) (re.++ (re.+ (re.range "0" "9")) (re.++ (re.+ (re.union (str.to.re " ") (re.union (str.to.re "\u{0b}") (re.union (str.to.re "\u{0a}") (re.union (str.to.re "\u{0d}") (re.union (str.to.re "\u{09}") (str.to.re "\u{0c}"))))))) (re.++ (str.to.re "h") (re.++ (re.union (re.++ (str.to.re "") (re.++ (str.to.re "o") (str.to.re "u"))) (str.to.re "")) (re.++ (re.union (re.++ (str.to.re "") (str.to.re "r")) (str.to.re "")) (re.union (re.++ (str.to.re "") (str.to.re "s")) (str.to.re ""))))))))) (str.to.re "")) (re.++ (re.union (re.++ (str.to.re "") (re.union (str.to.re " ") (re.union (str.to.re "\u{0b}") (re.union (str.to.re "\u{0a}") (re.union (str.to.re "\u{0d}") (re.union (str.to.re "\u{09}") (str.to.re "\u{0c}"))))))) (str.to.re "")) (re.++ (re.union (re.++ (str.to.re "") ((_ re.capture 3) (re.++ (re.+ (re.range "0" "9")) (re.++ (re.+ (re.union (str.to.re " ") (re.union (str.to.re "\u{0b}") (re.union (str.to.re "\u{0a}") (re.union (str.to.re "\u{0d}") (re.union (str.to.re "\u{09}") (str.to.re "\u{0c}"))))))) (re.++ (str.to.re "m") (re.++ (re.union (re.++ (str.to.re "") (re.++ (str.to.re "i") (str.to.re "n"))) (str.to.re "")) (re.++ (re.union (re.++ (str.to.re "") (re.++ (str.to.re "u") (re.++ (str.to.re "t") (str.to.re "e")))) (str.to.re "")) (re.union (re.++ (str.to.re "") (str.to.re "s")) (str.to.re ""))))))))) (str.to.re "")) (re.++ (re.union (re.++ (str.to.re "") (re.union (str.to.re " ") (re.union (str.to.re "\u{0b}") (re.union (str.to.re "\u{0a}") (re.union (str.to.re "\u{0d}") (re.union (str.to.re "\u{09}") (str.to.re "\u{0c}"))))))) (str.to.re "")) (re.union (re.++ (str.to.re "") ((_ re.capture 4) (re.++ (re.+ (re.range "0" "9")) (re.++ (re.union (re.++ (str.to.re "") (re.++ (re.+ (re.union (str.to.re " ") (re.union (str.to.re "\u{0b}") (re.union (str.to.re "\u{0a}") (re.union (str.to.re "\u{0d}") (re.union (str.to.re "\u{09}") (str.to.re "\u{0c}"))))))) (re.++ (str.to.re "s") (re.++ (re.union (re.++ (str.to.re "") (re.++ (str.to.re "e") (str.to.re "c"))) (str.to.re "")) (re.union (re.++ (str.to.re "") (re.++ (str.to.re "o") (re.++ (str.to.re "n") (str.to.re "d")))) (str.to.re "")))))) (str.to.re "")) (re.union (re.++ (str.to.re "") (str.to.re "s")) (str.to.re "")))))) (str.to.re "")))))))) re.end-anchor)) (str.to.re "\x00"))))	
;match[1]!==null
(assert (not (str.in.re ((_ str.extract 1) var0 (re.++ (re.++ (re.union (re.++ (re.++ (re.*? re.allchar) (str.to.re "")) ((_ re.capture 1) (re.++ (re.+ (re.range "0" "9")) (re.++ (re.+ (re.union (str.to.re " ") (re.union (str.to.re "\u{0b}") (re.union (str.to.re "\u{0a}") (re.union (str.to.re "\u{0d}") (re.union (str.to.re "\u{09}") (str.to.re "\u{0c}"))))))) (re.++ (str.to.re "d") (re.++ (re.union (re.++ (str.to.re "") (re.++ (str.to.re "a") (str.to.re "y"))) (str.to.re "")) (re.union (re.++ (str.to.re "") (str.to.re "s")) (str.to.re "")))))))) (re.++ (re.*? re.allchar) (str.to.re ""))) (re.++ (re.union (re.++ (str.to.re "") (re.union (str.to.re " ") (re.union (str.to.re "\u{0b}") (re.union (str.to.re "\u{0a}") (re.union (str.to.re "\u{0d}") (re.union (str.to.re "\u{09}") (str.to.re "\u{0c}"))))))) (str.to.re "")) (re.++ (re.union (re.++ (str.to.re "") ((_ re.capture 2) (re.++ (re.+ (re.range "0" "9")) (re.++ (re.+ (re.union (str.to.re " ") (re.union (str.to.re "\u{0b}") (re.union (str.to.re "\u{0a}") (re.union (str.to.re "\u{0d}") (re.union (str.to.re "\u{09}") (str.to.re "\u{0c}"))))))) (re.++ (str.to.re "h") (re.++ (re.union (re.++ (str.to.re "") (re.++ (str.to.re "o") (str.to.re "u"))) (str.to.re "")) (re.++ (re.union (re.++ (str.to.re "") (str.to.re "r")) (str.to.re "")) (re.union (re.++ (str.to.re "") (str.to.re "s")) (str.to.re ""))))))))) (str.to.re "")) (re.++ (re.union (re.++ (str.to.re "") (re.union (str.to.re " ") (re.union (str.to.re "\u{0b}") (re.union (str.to.re "\u{0a}") (re.union (str.to.re "\u{0d}") (re.union (str.to.re "\u{09}") (str.to.re "\u{0c}"))))))) (str.to.re "")) (re.++ (re.union (re.++ (str.to.re "") ((_ re.capture 3) (re.++ (re.+ (re.range "0" "9")) (re.++ (re.+ (re.union (str.to.re " ") (re.union (str.to.re "\u{0b}") (re.union (str.to.re "\u{0a}") (re.union (str.to.re "\u{0d}") (re.union (str.to.re "\u{09}") (str.to.re "\u{0c}"))))))) (re.++ (str.to.re "m") (re.++ (re.union (re.++ (str.to.re "") (re.++ (str.to.re "i") (str.to.re "n"))) (str.to.re "")) (re.++ (re.union (re.++ (str.to.re "") (re.++ (str.to.re "u") (re.++ (str.to.re "t") (str.to.re "e")))) (str.to.re "")) (re.union (re.++ (str.to.re "") (str.to.re "s")) (str.to.re ""))))))))) (str.to.re "")) (re.++ (re.union (re.++ (str.to.re "") (re.union (str.to.re " ") (re.union (str.to.re "\u{0b}") (re.union (str.to.re "\u{0a}") (re.union (str.to.re "\u{0d}") (re.union (str.to.re "\u{09}") (str.to.re "\u{0c}"))))))) (str.to.re "")) (re.union (re.++ (str.to.re "") ((_ re.capture 4) (re.++ (re.+ (re.range "0" "9")) (re.++ (re.union (re.++ (str.to.re "") (re.++ (re.+ (re.union (str.to.re " ") (re.union (str.to.re "\u{0b}") (re.union (str.to.re "\u{0a}") (re.union (str.to.re "\u{0d}") (re.union (str.to.re "\u{09}") (str.to.re "\u{0c}"))))))) (re.++ (str.to.re "s") (re.++ (re.union (re.++ (str.to.re "") (re.++ (str.to.re "e") (str.to.re "c"))) (str.to.re "")) (re.union (re.++ (str.to.re "") (re.++ (str.to.re "o") (re.++ (str.to.re "n") (str.to.re "d")))) (str.to.re "")))))) (str.to.re "")) (re.union (re.++ (str.to.re "") (str.to.re "s")) (str.to.re "")))))) (str.to.re "")))))))) re.end-anchor)) (re.++ re.all(re.+ (re.range "a" "z")) re.all) )))
;/[a-z]+/.test(match[1]) == false	
(check-sat)
(get-model)
(pop 1)
(push 1)
(assert (str.in.re var0 (re.* (re.range "\x01" "\xff"))))
(assert (str.in.re var0 (re.++ (re.++ (re.union (re.++ (re.++ (re.*? re.allchar) (str.to.re "")) ((_ re.capture 1) (re.++ (re.+ (re.range "0" "9")) (re.++ (re.+ (re.union (str.to.re " ") (re.union (str.to.re "\u{0b}") (re.union (str.to.re "\u{0a}") (re.union (str.to.re "\u{0d}") (re.union (str.to.re "\u{09}") (str.to.re "\u{0c}"))))))) (re.++ (str.to.re "d") (re.++ (re.union (re.++ (str.to.re "") (re.++ (str.to.re "a") (str.to.re "y"))) (str.to.re "")) (re.union (re.++ (str.to.re "") (str.to.re "s")) (str.to.re "")))))))) (re.++ (re.*? re.allchar) (str.to.re ""))) (re.++ (re.union (re.++ (str.to.re "") (re.union (str.to.re " ") (re.union (str.to.re "\u{0b}") (re.union (str.to.re "\u{0a}") (re.union (str.to.re "\u{0d}") (re.union (str.to.re "\u{09}") (str.to.re "\u{0c}"))))))) (str.to.re "")) (re.++ (re.union (re.++ (str.to.re "") ((_ re.capture 2) (re.++ (re.+ (re.range "0" "9")) (re.++ (re.+ (re.union (str.to.re " ") (re.union (str.to.re "\u{0b}") (re.union (str.to.re "\u{0a}") (re.union (str.to.re "\u{0d}") (re.union (str.to.re "\u{09}") (str.to.re "\u{0c}"))))))) (re.++ (str.to.re "h") (re.++ (re.union (re.++ (str.to.re "") (re.++ (str.to.re "o") (str.to.re "u"))) (str.to.re "")) (re.++ (re.union (re.++ (str.to.re "") (str.to.re "r")) (str.to.re "")) (re.union (re.++ (str.to.re "") (str.to.re "s")) (str.to.re ""))))))))) (str.to.re "")) (re.++ (re.union (re.++ (str.to.re "") (re.union (str.to.re " ") (re.union (str.to.re "\u{0b}") (re.union (str.to.re "\u{0a}") (re.union (str.to.re "\u{0d}") (re.union (str.to.re "\u{09}") (str.to.re "\u{0c}"))))))) (str.to.re "")) (re.++ (re.union (re.++ (str.to.re "") ((_ re.capture 3) (re.++ (re.+ (re.range "0" "9")) (re.++ (re.+ (re.union (str.to.re " ") (re.union (str.to.re "\u{0b}") (re.union (str.to.re "\u{0a}") (re.union (str.to.re "\u{0d}") (re.union (str.to.re "\u{09}") (str.to.re "\u{0c}"))))))) (re.++ (str.to.re "m") (re.++ (re.union (re.++ (str.to.re "") (re.++ (str.to.re "i") (str.to.re "n"))) (str.to.re "")) (re.++ (re.union (re.++ (str.to.re "") (re.++ (str.to.re "u") (re.++ (str.to.re "t") (str.to.re "e")))) (str.to.re "")) (re.union (re.++ (str.to.re "") (str.to.re "s")) (str.to.re ""))))))))) (str.to.re "")) (re.++ (re.union (re.++ (str.to.re "") (re.union (str.to.re " ") (re.union (str.to.re "\u{0b}") (re.union (str.to.re "\u{0a}") (re.union (str.to.re "\u{0d}") (re.union (str.to.re "\u{09}") (str.to.re "\u{0c}"))))))) (str.to.re "")) (re.union (re.++ (str.to.re "") ((_ re.capture 4) (re.++ (re.+ (re.range "0" "9")) (re.++ (re.union (re.++ (str.to.re "") (re.++ (re.+ (re.union (str.to.re " ") (re.union (str.to.re "\u{0b}") (re.union (str.to.re "\u{0a}") (re.union (str.to.re "\u{0d}") (re.union (str.to.re "\u{09}") (str.to.re "\u{0c}"))))))) (re.++ (str.to.re "s") (re.++ (re.union (re.++ (str.to.re "") (re.++ (str.to.re "e") (str.to.re "c"))) (str.to.re "")) (re.union (re.++ (str.to.re "") (re.++ (str.to.re "o") (re.++ (str.to.re "n") (str.to.re "d")))) (str.to.re "")))))) (str.to.re "")) (re.union (re.++ (str.to.re "") (str.to.re "s")) (str.to.re "")))))) (str.to.re "")))))))) re.end-anchor)))	; match!==null
(assert (str.in.re ((_ str.extract 1) var0 (re.++ (re.++ (re.union (re.++ (re.++ (re.*? re.allchar) (str.to.re "")) ((_ re.capture 1) (re.++ (re.+ (re.range "0" "9")) (re.++ (re.+ (re.union (str.to.re " ") (re.union (str.to.re "\u{0b}") (re.union (str.to.re "\u{0a}") (re.union (str.to.re "\u{0d}") (re.union (str.to.re "\u{09}") (str.to.re "\u{0c}"))))))) (re.++ (str.to.re "d") (re.++ (re.union (re.++ (str.to.re "") (re.++ (str.to.re "a") (str.to.re "y"))) (str.to.re "")) (re.union (re.++ (str.to.re "") (str.to.re "s")) (str.to.re "")))))))) (re.++ (re.*? re.allchar) (str.to.re ""))) (re.++ (re.union (re.++ (str.to.re "") (re.union (str.to.re " ") (re.union (str.to.re "\u{0b}") (re.union (str.to.re "\u{0a}") (re.union (str.to.re "\u{0d}") (re.union (str.to.re "\u{09}") (str.to.re "\u{0c}"))))))) (str.to.re "")) (re.++ (re.union (re.++ (str.to.re "") ((_ re.capture 2) (re.++ (re.+ (re.range "0" "9")) (re.++ (re.+ (re.union (str.to.re " ") (re.union (str.to.re "\u{0b}") (re.union (str.to.re "\u{0a}") (re.union (str.to.re "\u{0d}") (re.union (str.to.re "\u{09}") (str.to.re "\u{0c}"))))))) (re.++ (str.to.re "h") (re.++ (re.union (re.++ (str.to.re "") (re.++ (str.to.re "o") (str.to.re "u"))) (str.to.re "")) (re.++ (re.union (re.++ (str.to.re "") (str.to.re "r")) (str.to.re "")) (re.union (re.++ (str.to.re "") (str.to.re "s")) (str.to.re ""))))))))) (str.to.re "")) (re.++ (re.union (re.++ (str.to.re "") (re.union (str.to.re " ") (re.union (str.to.re "\u{0b}") (re.union (str.to.re "\u{0a}") (re.union (str.to.re "\u{0d}") (re.union (str.to.re "\u{09}") (str.to.re "\u{0c}"))))))) (str.to.re "")) (re.++ (re.union (re.++ (str.to.re "") ((_ re.capture 3) (re.++ (re.+ (re.range "0" "9")) (re.++ (re.+ (re.union (str.to.re " ") (re.union (str.to.re "\u{0b}") (re.union (str.to.re "\u{0a}") (re.union (str.to.re "\u{0d}") (re.union (str.to.re "\u{09}") (str.to.re "\u{0c}"))))))) (re.++ (str.to.re "m") (re.++ (re.union (re.++ (str.to.re "") (re.++ (str.to.re "i") (str.to.re "n"))) (str.to.re "")) (re.++ (re.union (re.++ (str.to.re "") (re.++ (str.to.re "u") (re.++ (str.to.re "t") (str.to.re "e")))) (str.to.re "")) (re.union (re.++ (str.to.re "") (str.to.re "s")) (str.to.re ""))))))))) (str.to.re "")) (re.++ (re.union (re.++ (str.to.re "") (re.union (str.to.re " ") (re.union (str.to.re "\u{0b}") (re.union (str.to.re "\u{0a}") (re.union (str.to.re "\u{0d}") (re.union (str.to.re "\u{09}") (str.to.re "\u{0c}"))))))) (str.to.re "")) (re.union (re.++ (str.to.re "") ((_ re.capture 4) (re.++ (re.+ (re.range "0" "9")) (re.++ (re.union (re.++ (str.to.re "") (re.++ (re.+ (re.union (str.to.re " ") (re.union (str.to.re "\u{0b}") (re.union (str.to.re "\u{0a}") (re.union (str.to.re "\u{0d}") (re.union (str.to.re "\u{09}") (str.to.re "\u{0c}"))))))) (re.++ (str.to.re "s") (re.++ (re.union (re.++ (str.to.re "") (re.++ (str.to.re "e") (str.to.re "c"))) (str.to.re "")) (re.union (re.++ (str.to.re "") (re.++ (str.to.re "o") (re.++ (str.to.re "n") (str.to.re "d")))) (str.to.re "")))))) (str.to.re "")) (re.union (re.++ (str.to.re "") (str.to.re "s")) (str.to.re "")))))) (str.to.re "")))))))) re.end-anchor)) (str.to.re "\x00")))
;match[1]==null
(check-sat)
(get-model)
(pop 1)
(push 1)
(assert (str.in.re var0 (re.* (re.range "\x01" "\xff"))))
(assert (not (str.in.re var0 (re.++ (re.++ (re.union (re.++ (re.++ (re.*? re.allchar) (str.to.re "")) ((_ re.capture 1) (re.++ (re.+ (re.range "0" "9")) (re.++ (re.+ (re.union (str.to.re " ") (re.union (str.to.re "\u{0b}") (re.union (str.to.re "\u{0a}") (re.union (str.to.re "\u{0d}") (re.union (str.to.re "\u{09}") (str.to.re "\u{0c}"))))))) (re.++ (str.to.re "d") (re.++ (re.union (re.++ (str.to.re "") (re.++ (str.to.re "a") (str.to.re "y"))) (str.to.re "")) (re.union (re.++ (str.to.re "") (str.to.re "s")) (str.to.re "")))))))) (re.++ (re.*? re.allchar) (str.to.re ""))) (re.++ (re.union (re.++ (str.to.re "") (re.union (str.to.re " ") (re.union (str.to.re "\u{0b}") (re.union (str.to.re "\u{0a}") (re.union (str.to.re "\u{0d}") (re.union (str.to.re "\u{09}") (str.to.re "\u{0c}"))))))) (str.to.re "")) (re.++ (re.union (re.++ (str.to.re "") ((_ re.capture 2) (re.++ (re.+ (re.range "0" "9")) (re.++ (re.+ (re.union (str.to.re " ") (re.union (str.to.re "\u{0b}") (re.union (str.to.re "\u{0a}") (re.union (str.to.re "\u{0d}") (re.union (str.to.re "\u{09}") (str.to.re "\u{0c}"))))))) (re.++ (str.to.re "h") (re.++ (re.union (re.++ (str.to.re "") (re.++ (str.to.re "o") (str.to.re "u"))) (str.to.re "")) (re.++ (re.union (re.++ (str.to.re "") (str.to.re "r")) (str.to.re "")) (re.union (re.++ (str.to.re "") (str.to.re "s")) (str.to.re ""))))))))) (str.to.re "")) (re.++ (re.union (re.++ (str.to.re "") (re.union (str.to.re " ") (re.union (str.to.re "\u{0b}") (re.union (str.to.re "\u{0a}") (re.union (str.to.re "\u{0d}") (re.union (str.to.re "\u{09}") (str.to.re "\u{0c}"))))))) (str.to.re "")) (re.++ (re.union (re.++ (str.to.re "") ((_ re.capture 3) (re.++ (re.+ (re.range "0" "9")) (re.++ (re.+ (re.union (str.to.re " ") (re.union (str.to.re "\u{0b}") (re.union (str.to.re "\u{0a}") (re.union (str.to.re "\u{0d}") (re.union (str.to.re "\u{09}") (str.to.re "\u{0c}"))))))) (re.++ (str.to.re "m") (re.++ (re.union (re.++ (str.to.re "") (re.++ (str.to.re "i") (str.to.re "n"))) (str.to.re "")) (re.++ (re.union (re.++ (str.to.re "") (re.++ (str.to.re "u") (re.++ (str.to.re "t") (str.to.re "e")))) (str.to.re "")) (re.union (re.++ (str.to.re "") (str.to.re "s")) (str.to.re ""))))))))) (str.to.re "")) (re.++ (re.union (re.++ (str.to.re "") (re.union (str.to.re " ") (re.union (str.to.re "\u{0b}") (re.union (str.to.re "\u{0a}") (re.union (str.to.re "\u{0d}") (re.union (str.to.re "\u{09}") (str.to.re "\u{0c}"))))))) (str.to.re "")) (re.union (re.++ (str.to.re "") ((_ re.capture 4) (re.++ (re.+ (re.range "0" "9")) (re.++ (re.union (re.++ (str.to.re "") (re.++ (re.+ (re.union (str.to.re " ") (re.union (str.to.re "\u{0b}") (re.union (str.to.re "\u{0a}") (re.union (str.to.re "\u{0d}") (re.union (str.to.re "\u{09}") (str.to.re "\u{0c}"))))))) (re.++ (str.to.re "s") (re.++ (re.union (re.++ (str.to.re "") (re.++ (str.to.re "e") (str.to.re "c"))) (str.to.re "")) (re.union (re.++ (str.to.re "") (re.++ (str.to.re "o") (re.++ (str.to.re "n") (str.to.re "d")))) (str.to.re "")))))) (str.to.re "")) (re.union (re.++ (str.to.re "") (str.to.re "s")) (str.to.re "")))))) (str.to.re "")))))))) re.end-anchor))))	; match == null
(check-sat)
(get-model)
(pop 1)
(exit)
